25
15.86 36.74
17.47 36.74
19.07 36.74
20.68 36.74
22.28 36.74
23.89 36.74
23.89 38.41
23.89 40.08
23.89 41.76
23.89 43.43
23.89 45.1
22.28 45.1
20.68 45.1
19.07 45.1
17.47 45.1
15.86 45.1
15.86 43.43
15.86 41.76
15.86 40.08
15.86 38.41
51.16 2.56
50.54 4.46
48.93 5.63
46.93 5.63
45.32 4.46
